p cnf 203 713
1 -2 0
2 -1 0
3 -4 0
4 -3 0
5 -6 0
6 -5 0
7 -8 0
8 -7 0
9 -10 0
10 -9 0
11 -12 0
12 -11 0
13 -14 0
14 -13 0
15 -16 0
16 -15 0
17 -18 0
18 -17 0
19 -20 0
-19 20 0
21 -22 0
-21 22 0
23 -24 0
24 -23 0
25 -26 0
26 -25 0
27 -28 0
28 -27 0
29 -30 0
30 -29 0
31 -32 0
32 -31 0
33 -34 0
34 -33 0
35 -36 0
36 -35 0
37 -38 0
38 -37 0
39 -40 0
40 -39 0
41 -42 0
-41 42 0
43 -44 0
44 -43 0
45 -46 0
46 -45 0
47 -48 0
48 -47 0
49 -50 0
50 -49 0
51 -52 0
52 -51 0
53 -54 0
54 -53 0
55 -56 0
56 -55 0
57 -58 0
58 -57 0
59 -60 0
60 -59 0
61 -62 0
62 -61 0
63 -64 0
64 -63 0
65 -66 0
-65 66 0
31 67 0
9 67 0
-67 -31 -9 0
1 68 0
23 68 0
-1 -23 -68 0
25 69 0
-68 69 0
-25 68 -69 0
25 70 0
3 70 0
-25 -70 -3 0
3 71 0
71 -68 0
-71 68 -3 0
5 72 0
72 -70 -71 -69 0
71 -5 -72 0
-5 -72 70 0
-5 -72 69 0
5 73 0
27 73 0
-5 -27 -73 0
27 74 0
74 -70 -71 -69 0
71 -27 -74 0
-27 -74 70 0
-27 -74 69 0
7 75 0
75 -73 -72 -74 0
-7 74 -75 0
-7 73 -75 0
-7 -75 72 0
29 76 0
76 -73 -72 -74 0
-76 -29 74 0
-76 -29 73 0
-76 -29 72 0
29 77 0
7 77 0
-29 -7 -77 0
31 78 0
-76 78 -75 -77 0
77 -78 -31 0
-78 76 -31 0
75 -78 -31 0
9 79 0
-76 -75 79 -77 0
77 -79 -9 0
-79 76 -9 0
75 -79 -9 0
11 80 0
-79 -78 -67 80 0
79 -80 -11 0
78 -80 -11 0
67 -80 -11 0
33 81 0
11 81 0
-81 -33 -11 0
33 82 0
-79 82 -78 -67 0
-82 79 -33 0
78 -82 -33 0
67 -82 -33 0
35 83 0
-81 83 -82 -80 0
82 -83 -35 0
-83 -35 81 0
-83 -35 80 0
13 84 0
84 -81 -82 -80 0
-84 82 -13 0
-84 -13 81 0
-84 -13 80 0
13 85 0
35 85 0
-13 -35 -85 0
37 86 0
-84 -85 -83 86 0
85 -86 -37 0
84 -86 -37 0
83 -86 -37 0
15 87 0
87 -84 -85 -83 0
85 -15 -87 0
84 -15 -87 0
83 -15 -87 0
15 88 0
37 88 0
-15 -37 -88 0
17 89 0
89 -88 -87 -86 0
-17 -89 88 0
-17 87 -89 0
-17 -89 86 0
39 90 0
90 -88 -87 -86 0
-39 88 -90 0
87 -39 -90 0
-39 86 -90 0
17 91 0
39 91 0
-17 -39 -91 0
19 92 0
-89 92 -91 -90 0
-19 -92 91 0
-19 -92 90 0
-19 -92 89 0
41 93 0
93 -89 -91 -90 0
-41 -93 91 0
-41 -93 90 0
-41 -93 89 0
19 94 0
41 94 0
-19 -41 -94 0
-43 94 0
93 -43 0
-43 92 0
-25 -95 23 0
25 -95 -23 0
95 -23 -25 0
95 25 23 0
95 -96 3 23 0
95 -96 -23 -3 0
-96 -95 -3 23 0
-96 -95 3 -23 0
96 -95 -23 -3 0
96 -95 3 23 0
95 96 3 -23 0
95 96 -3 23 0
-96 0
-43 -65 0
23 -45 0
45 -23 0
-21 0
-43 0
-65 0
-21 94 0
93 -21 0
92 -21 0
-43 -21 0
-25 97 0
97 -23 0
25 -97 23 0
98 -27 0
-97 98 0
27 97 -98 0
-29 99 0
-98 99 0
29 98 -99 0
-31 100 0
-99 100 0
31 99 -100 0
101 -33 0
101 -100 0
33 100 -101 0
102 -35 0
-101 102 0
35 101 -102 0
103 -37 0
103 -102 0
37 102 -103 0
-39 104 0
104 -103 0
39 103 -104 0
-41 104 -105 0
41 -104 -105 0
105 -41 -104 0
41 105 104 0
101 -106 -35 0
-101 35 -106 0
-101 106 -35 0
35 101 106 0
-29 98 -107 0
-98 29 -107 0
-98 -29 107 0
29 98 107 0
-108 97 -27 0
-108 27 -97 0
108 -97 -27 0
108 27 97 0
97 -109 -27 0
27 -97 -109 0
-97 -27 109 0
27 97 109 0
95 110 0
95 -23 110 0
-23 110 0
-95 -110 23 0
95 111 0
95 111 -23 0
111 -23 0
-95 -111 23 0
112 -111 0
112 -111 109 0
109 112 0
-112 111 -109 0
-29 98 -113 0
-98 29 -113 0
-98 -29 113 0
29 98 113 0
114 -111 0
114 -111 109 0
109 114 0
111 -109 -114 0
-114 115 0
113 115 0
-114 115 113 0
114 -113 -115 0
99 -116 -31 0
31 -99 -116 0
-99 116 -31 0
31 99 116 0
99 -117 -31 0
31 -99 -117 0
-99 -31 117 0
31 99 117 0
118 -114 0
113 118 0
118 -114 113 0
114 -118 -113 0
-118 119 117 0
117 119 0
-118 119 0
118 -117 -119 0
-120 -33 100 0
33 -120 -100 0
-33 -100 120 0
33 100 120 0
-121 -33 100 0
33 -121 -100 0
121 -33 -100 0
121 33 100 0
-118 122 117 0
117 122 0
-118 122 0
118 -122 -117 0
121 123 -122 0
121 123 0
123 -122 0
122 -123 -121 0
123 124 0
124 -106 0
-124 -123 106 0
102 -125 -37 0
37 -125 -102 0
125 -102 -37 0
37 102 125 0
-125 126 0
-124 126 0
124 125 -126 0
-39 103 -127 0
39 -103 -127 0
-39 -103 127 0
39 103 127 0
-127 128 0
128 -126 0
127 126 -128 0
105 -129 128 19 0
-19 -129 128 -105 0
105 -19 -129 -128 0
-129 -128 -105 19 0
-19 129 -128 -105 0
105 129 -128 19 0
129 128 -105 19 0
105 -19 129 128 0
-129 0
130 -41 0
130 -104 0
41 104 -130 0
130 -43 -131 0
43 -130 -131 0
-43 -130 131 0
130 43 131 0
132 -105 0
132 -128 0
105 128 -132 0
132 131 21 0
-132 21 -131 0
132 -21 -131 0
-21 -132 131 0
-133 118 9 117 0
-133 -118 -9 117 0
-133 118 -117 -9 0
-133 -118 9 -117 0
-118 133 -117 -9 0
118 9 133 -117 0
-118 9 133 117 0
118 133 -9 117 0
-133 0
-134 -1 23 0
-134 1 -23 0
134 -1 -23 0
134 1 23 0
-134 0
-135 122 121 11 0
-135 121 -122 -11 0
-135 122 -121 -11 0
-135 -122 -121 11 0
135 -122 -121 -11 0
135 122 -121 11 0
135 121 -122 11 0
135 122 121 -11 0
-135 0
13 106 123 0
13 -106 -123 0
-123 106 -13 0
123 -106 -13 0
17 127 -136 126 0
-17 -127 -136 126 0
-17 127 -136 -126 0
17 -127 -136 -126 0
-17 136 -127 -126 0
136 17 127 -126 0
136 17 -127 126 0
-17 136 127 126 0
-136 0
-137 124 125 15 0
-137 -125 124 -15 0
-137 -124 -15 125 0
-137 -124 -125 15 0
-124 -125 -15 137 0
-124 125 137 15 0
-125 124 137 15 0
124 -15 125 137 0
-137 0
114 7 -138 113 0
-7 -138 -114 113 0
114 -7 -138 -113 0
7 -138 -113 -114 0
-7 138 -113 -114 0
114 7 138 -113 0
7 138 -114 113 0
114 -7 138 113 0
-138 0
-139 5 111 109 0
-5 -139 -111 109 0
-5 -139 111 -109 0
-139 5 -109 -111 0
139 -5 -109 -111 0
139 5 111 -109 0
139 5 -111 109 0
139 -5 111 109 0
-139 0
57 140 0
35 140 0
-57 -35 -140 0
55 141 0
33 141 0
-141 -55 -33 0
45 142 0
23 142 0
-45 -23 -142 0
25 143 0
143 -142 0
142 -143 -25 0
25 144 0
47 144 0
-25 -47 -144 0
47 145 0
145 -142 0
142 -145 -47 0
27 146 0
-145 -143 -144 146 0
145 -27 -146 0
144 -27 -146 0
143 -27 -146 0
49 147 0
-145 -143 -144 147 0
-49 -147 145 0
-49 144 -147 0
-49 143 -147 0
49 148 0
27 148 0
-49 -148 -27 0
51 149 0
-147 -148 -146 149 0
-51 148 -149 0
-51 147 -149 0
-51 146 -149 0
29 150 0
-147 150 -148 -146 0
-29 -150 148 0
-29 -150 147 0
-29 -150 146 0
29 151 0
51 151 0
-29 -51 -151 0
31 152 0
-151 -150 152 -149 0
-152 151 -31 0
-152 150 -31 0
-152 -31 149 0
53 153 0
31 153 0
-53 -153 -31 0
53 154 0
-151 154 -150 -149 0
-53 -154 151 0
-53 150 -154 0
-53 -154 149 0
55 155 0
-152 -154 -153 155 0
154 -55 -155 0
153 -55 -155 0
-55 152 -155 0
33 156 0
-152 156 -154 -153 0
154 -156 -33 0
153 -156 -33 0
152 -156 -33 0
57 157 0
-141 -156 -155 157 0
-57 156 -157 0
-57 -157 155 0
-57 141 -157 0
35 158 0
-141 -156 158 -155 0
156 -35 -158 0
155 -35 -158 0
141 -35 -158 0
59 159 0
159 -157 -140 -158 0
-159 -59 158 0
-159 -59 157 0
-159 -59 140 0
59 160 0
37 160 0
-160 -59 -37 0
37 161 0
161 -157 -140 -158 0
-161 158 -37 0
-161 157 -37 0
-161 140 -37 0
61 162 0
-161 -160 -159 162 0
-61 -162 161 0
-61 -162 160 0
-61 -162 159 0
39 163 0
-161 -160 -159 163 0
-39 -163 161 0
-39 -163 160 0
-39 -163 159 0
39 164 0
61 164 0
-39 -61 -164 0
41 165 0
-163 -162 165 -164 0
-41 -165 164 0
-41 -165 163 0
-41 162 -165 0
41 166 0
63 166 0
-41 -63 -166 0
63 167 0
-163 167 -162 -164 0
-167 -63 164 0
-167 -63 163 0
162 -167 -63 0
-65 167 0
166 -65 0
-65 165 0
-43 167 0
166 -43 0
-43 165 0
168 -47 0
168 -45 0
-168 47 45 0
-49 169 0
-168 169 0
49 168 -169 0
-170 29 51 169 0
-29 -170 -51 169 0
-29 -170 51 -169 0
-170 29 -51 -169 0
-29 170 -51 -169 0
170 29 51 -169 0
170 29 -51 169 0
-29 170 51 169 0
-170 0
-51 171 0
-169 171 0
51 169 -171 0
-53 172 0
172 -171 0
53 171 -172 0
-173 172 -55 0
55 -172 -173 0
-172 -55 173 0
55 172 173 0
-53 -174 171 0
53 -171 -174 0
-53 -171 174 0
53 174 171 0
-175 172 -55 0
55 -172 -175 0
175 -172 -55 0
175 55 172 0
-53 -176 171 0
53 -176 -171 0
-53 -171 176 0
53 176 171 0
176 177 0
175 177 0
175 176 177 0
-175 -176 -177 0
176 178 0
175 178 0
175 178 176 0
-175 -176 -178 0
-55 179 0
-172 179 0
55 172 -179 0
-57 -180 179 0
-179 57 -180 0
-179 -57 180 0
57 179 180 0
-181 -57 179 0
-179 -181 57 0
-179 181 -57 0
181 57 179 0
181 182 0
181 182 -178 0
182 -178 0
-181 178 -182 0
-57 183 0
-179 183 0
57 179 -183 0
183 -59 -184 0
-183 -184 59 0
184 -59 -183 0
184 183 59 0
184 37 182 -185 0
184 -182 -185 -37 0
182 -184 -185 -37 0
37 -182 -184 -185 0
185 -182 -184 -37 0
37 185 182 -184 0
184 37 185 -182 0
184 185 182 -37 0
-185 0
175 33 176 0
-175 33 -176 0
-175 176 -33 0
175 -176 -33 0
181 178 35 -186 0
181 -186 -178 -35 0
-181 178 -186 -35 0
-181 35 -186 -178 0
-181 -178 -35 186 0
-181 178 35 186 0
181 35 -178 186 0
181 178 -35 186 0
-186 0
31 -176 0
176 -31 0
187 -59 0
187 -183 0
59 183 -187 0
-61 188 0
-187 188 0
61 187 -188 0
188 -63 -189 0
63 -189 -188 0
189 -63 -188 0
63 189 188 0
-190 188 -63 0
-190 63 -188 0
190 -63 -188 0
190 63 188 0
187 -61 -191 0
-187 -191 61 0
-187 -61 191 0
187 191 61 0
184 -182 192 0
-182 192 0
184 192 0
182 -184 -192 0
187 -61 -193 0
-187 -193 61 0
-187 -61 193 0
187 193 61 0
184 194 -182 0
194 -182 0
184 194 0
182 -184 -194 0
195 -194 0
195 193 -194 0
193 195 0
-195 194 -193 0
-194 196 0
193 -194 196 0
193 196 0
-196 194 -193 0
-196 197 0
-196 190 197 0
190 197 0
-190 196 -197 0
198 -63 0
198 -188 0
63 188 -198 0
-65 198 -199 0
65 -198 -199 0
-65 199 -198 0
198 65 199 0
43 197 199 0
43 -199 -197 0
-43 199 -197 0
-43 197 -199 0
25 47 45 -200 0
-25 45 -47 -200 0
-45 47 -25 -200 0
-45 25 -47 -200 0
200 -45 -25 -47 0
200 -45 25 47 0
200 25 45 -47 0
200 47 -25 45 0
-200 0
168 27 49 -201 0
168 -49 -201 -27 0
-168 49 -201 -27 0
-49 -168 27 -201 0
-49 201 -168 -27 0
201 -168 27 49 0
168 -49 201 27 0
168 201 49 -27 0
-201 0
39 194 -202 193 0
-39 -202 193 -194 0
-39 194 -202 -193 0
39 -202 -193 -194 0
-39 202 -193 -194 0
39 202 194 -193 0
39 202 193 -194 0
-39 202 194 193 0
-202 0
41 190 -203 196 0
-196 190 -41 -203 0
-190 -41 -203 196 0
41 -196 -190 -203 0
-196 -190 -41 203 0
41 -190 203 196 0
41 -196 190 203 0
190 -41 203 196 0
-203 0
